CMPL model generation - running

CMPL version: 1.11.0
Authors: Thomas Schleiff, Mike Steglich
Distributed under the GPLv3 

create model instance ...
write model instance ...
CMPL model generation - finished

Solver - running


Welcome to IBM(R) ILOG(R) CPLEX(R) Interactive Optimizer 12.7.1.0
  with Simplex, Mixed Integer & Barrier Optimizers
5725-A06 5725-A29 5724-Y48 5724-Y49 5724-Y54 5724-Y55 5655-Y21
Copyright IBM Corp. 1988, 2017.  All Rights Reserved.

Type 'help' for a list of available commands.
Type 'help' followed by a command name for more
information on commands.

CPLEX> Specified objective sense: MINIMIZE
Selected objective  name:  line[1]
Selected RHS        name:  RHS
Selected bound      name:  BOUND
Problem '/tmp/cmpl.T24639.mps' read.
Read time = 0.08 sec. (10.14 ticks)
CPLEX> CPXPARAM_Read_APIEncoding                        "UTF-8"
Tried aggregator 3 times.
MIP Presolve eliminated 23797 rows and 37170 columns.
MIP Presolve modified 425 coefficients.
Aggregator did 943 substitutions.
Reduced MIP has 3182 rows, 4342 columns, and 12842 nonzeros.
Reduced MIP has 4132 binaries, 0 generals, 0 SOSs, and 0 indicators.
Presolve time = 0.10 sec. (50.75 ticks)
Found incumbent of value 1915.704806 after 0.18 sec. (82.56 ticks)
Probing time = 0.01 sec. (2.89 ticks)
Tried aggregator 1 time.
MIP Presolve eliminated 0 rows and 2 columns.
Reduced MIP has 3182 rows, 4340 columns, and 12838 nonzeros.
Reduced MIP has 4340 binaries, 0 generals, 0 SOSs, and 0 indicators.
Presolve time = 0.03 sec. (10.62 ticks)
Probing fixed 23 vars, tightened 0 bounds.
Probing time = 0.02 sec. (5.77 ticks)
Clique table members: 8060.
MIP emphasis: balance optimality and feasibility.
MIP search method: dynamic search.
Parallel mode: none, using 1 thread.
Root relaxation solution time = 0.01 sec. (9.75 ticks)

        Nodes                                         Cuts/
   Node  Left     Objective  IInf  Best Integer    Best Bound    ItCnt     Gap

*     0+    0                         1915.7048       -1.9749           100.10%
      0     0      589.4346    12     1915.7048      589.4346      440   69.23%
*     0+    0                          589.4372      589.4346             0.00%

Root node processing (before b&c):
  Real time             =    0.28 sec. (125.84 ticks)
Sequential b&c:
  Real time             =    0.00 sec. (0.00 ticks)
                          ------------
Total (root+branch&cut) =    0.28 sec. (125.84 ticks)

Solution pool: 2 solutions saved.

MIP - Integer optimal, tolerance (0.0001/1e-06):  Objective =  5.8943718500e+02
Current MIP best bound =  5.8943455450e+02 (gap = 0.0026305, 0.00%)
Solution time =    0.28 sec.  Iterations = 440  Nodes = 0 (1)
Deterministic time = 125.96 ticks  (446.49 ticks/sec)

CPLEX> Incumbent solution written to file '/tmp/cmpl.T24639.gsol'.
CPLEX> 
CMPL: Time used for model generation: 1 seconds
CMPL: Time used for solving the model: 1 seconds


Solution written to ASCII file: results/output_generated_conf_0.8/2016-12-05-5/fair-nonlinear.sol

Solver - finished
